# Solution for model JobShopModel
# Objective value = 8170
y[0,0,3] 1
y[0,0,4] 0
y[0,0,6] 0
y[0,1,1] 1
y[0,1,3] 0
y[0,1,6] 0
y[0,2,0] 1
y[0,2,1] 0
y[0,2,2] 0
y[1,0,4] 0
y[1,0,5] 1
y[1,0,6] 0
y[1,1,1] 1
y[1,1,2] 0
y[1,2,0] 1
y[1,2,2] 0
y[2,0,3] 0
y[2,0,4] 1
y[2,0,5] 0
y[2,1,2] 0
y[2,1,3] 1
y[2,1,6] 0
y[2,2,0] 0
y[2,2,1] 1
y[3,0,3] 0
y[3,0,5] 1
y[3,1,2] 1
y[3,1,4] 0
y[3,2,0] 1
y[3,2,1] 0
y[4,0,1] 0
y[4,0,4] 0
y[4,0,5] 1
y[4,1,3] 0
y[4,1,4] 0
y[4,1,6] 1
y[4,2,0] 0
y[4,2,1] 0
y[4,2,2] 1
y[5,0,4] 0
y[5,0,5] 1
y[5,0,6] 0
y[5,1,2] 0
y[5,1,3] 0
y[5,1,4] 1
y[5,2,1] 0
y[5,2,2] 0
y[5,2,3] 1
y[6,0,4] 0
y[6,0,5] 0
y[6,0,6] 1
y[6,1,2] 1
y[6,1,4] 0
y[6,2,1] 1
y[6,2,2] 0
y[7,0,4] 0
y[7,0,5] 0
y[7,0,6] 1
y[7,1,4] 1
y[7,1,5] 0
y[7,2,2] 0
y[7,2,3] 1
x[0,0,0,0] 0
x[0,0,0,1] 0
x[0,0,0,2] 0
x[0,0,1,0] 1
x[0,0,1,1] 0
x[0,0,1,2] 0
x[0,0,2,0] 1
x[0,0,2,1] 0
x[0,0,2,2] 0
x[0,0,3,0] 0
x[0,0,3,1] 1
x[0,0,3,2] 0
x[0,0,4,0] 1
x[0,0,4,1] 1
x[0,0,4,2] 0
x[0,0,5,0] 1
x[0,0,5,1] 0
x[0,0,5,2] 1
x[0,0,6,0] 0
x[0,0,6,1] 1
x[0,0,6,2] 0
x[0,0,7,0] 0
x[0,0,7,1] 0
x[0,0,7,2] 1
x[0,1,0,0] 1
x[0,1,0,1] 0
x[0,1,0,2] 0
x[0,1,1,0] 1
x[0,1,1,1] 0
x[0,1,1,2] 0
x[0,1,2,0] 0
x[0,1,2,1] 1
x[0,1,2,2] 0
x[0,1,3,0] 0
x[0,1,3,1] 0
x[0,1,3,2] 0
x[0,1,4,0] 0
x[0,1,4,1] 1
x[0,1,4,2] 1
x[0,1,5,0] 1
x[0,1,5,1] 0
x[0,1,5,2] 0
x[0,1,6,0] 1
x[0,1,6,1] 0
x[0,1,6,2] 1
x[0,1,7,0] 1
x[0,1,7,1] 0
x[0,1,7,2] 1
x[0,2,0,0] 0
x[0,2,0,1] 1
x[0,2,0,2] 0
x[0,2,1,0] 0
x[0,2,1,1] 1
x[0,2,1,2] 0
x[0,2,2,0] 0
x[0,2,2,1] 0
x[0,2,2,2] 0
x[0,2,3,0] 0
x[0,2,3,1] 1
x[0,2,3,2] 0
x[0,2,4,0] 1
x[0,2,4,1] 0
x[0,2,4,2] 0
x[0,2,5,0] 0
x[0,2,5,1] 0
x[0,2,5,2] 0
x[0,2,6,0] 0
x[0,2,6,1] 1
x[0,2,6,2] 0
x[0,2,7,0] 0
x[0,2,7,1] 0
x[0,2,7,2] 1
x[1,0,0,0] 0
x[1,0,0,1] 0
x[1,0,0,2] 0
x[1,0,1,0] 0
x[1,0,1,1] 0
x[1,0,1,2] 0
x[1,0,2,0] 1
x[1,0,2,1] 0
x[1,0,2,2] 0
x[1,0,3,0] 0
x[1,0,3,1] 0
x[1,0,3,2] 0
x[1,0,4,0] 1
x[1,0,4,1] 0
x[1,0,4,2] 0
x[1,0,5,0] 1
x[1,0,5,1] 1
x[1,0,5,2] 0
x[1,0,6,0] 0
x[1,0,6,1] 1
x[1,0,6,2] 0
x[1,0,7,0] 1
x[1,0,7,1] 0
x[1,0,7,2] 0
x[1,1,0,0] 0
x[1,1,0,1] 0
x[1,1,0,2] 0
x[1,1,1,0] 0
x[1,1,1,1] 0
x[1,1,1,2] 0
x[1,1,2,0] 0
x[1,1,2,1] 0
x[1,1,2,2] 0
x[1,1,3,0] 0
x[1,1,3,1] 0
x[1,1,3,2] 0
x[1,1,4,0] 0
x[1,1,4,1] 0
x[1,1,4,2] 1
x[1,1,5,0] 0
x[1,1,5,1] 0
x[1,1,5,2] 0
x[1,1,6,0] 0
x[1,1,6,1] 1
x[1,1,6,2] 1
x[1,1,7,0] 0
x[1,1,7,1] 0
x[1,1,7,2] 0
x[1,2,0,0] 0
x[1,2,0,1] 0
x[1,2,0,2] 0
x[1,2,1,0] 0
x[1,2,1,1] 1
x[1,2,1,2] 0
x[1,2,2,0] 0
x[1,2,2,1] 0
x[1,2,2,2] 0
x[1,2,3,0] 0
x[1,2,3,1] 1
x[1,2,3,2] 0
x[1,2,4,0] 0
x[1,2,4,1] 0
x[1,2,4,2] 0
x[1,2,5,0] 0
x[1,2,5,1] 0
x[1,2,5,2] 1
x[1,2,6,0] 0
x[1,2,6,1] 1
x[1,2,6,2] 1
x[1,2,7,0] 0
x[1,2,7,1] 0
x[1,2,7,2] 0
x[2,0,0,0] 0
x[2,0,0,1] 0
x[2,0,0,2] 0
x[2,0,1,0] 0
x[2,0,1,1] 0
x[2,0,1,2] 0
x[2,0,2,0] 0
x[2,0,2,1] 0
x[2,0,2,2] 0
x[2,0,3,0] 0
x[2,0,3,1] 0
x[2,0,3,2] 0
x[2,0,4,0] 0
x[2,0,4,1] 0
x[2,0,4,2] 0
x[2,0,5,0] 0
x[2,0,5,1] 1
x[2,0,5,2] 1
x[2,0,6,0] 0
x[2,0,6,1] 0
x[2,0,6,2] 0
x[2,0,7,0] 0
x[2,0,7,1] 1
x[2,0,7,2] 1
x[2,1,0,0] 0
x[2,1,0,1] 0
x[2,1,0,2] 0
x[2,1,1,0] 0
x[2,1,1,1] 0
x[2,1,1,2] 0
x[2,1,2,0] 1
x[2,1,2,1] 0
x[2,1,2,2] 0
x[2,1,3,0] 0
x[2,1,3,1] 0
x[2,1,3,2] 0
x[2,1,4,0] 0
x[2,1,4,1] 1
x[2,1,4,2] 0
x[2,1,5,0] 0
x[2,1,5,1] 0
x[2,1,5,2] 1
x[2,1,6,0] 1
x[2,1,6,1] 0
x[2,1,6,2] 0
x[2,1,7,0] 0
x[2,1,7,1] 0
x[2,1,7,2] 1
x[2,2,0,0] 0
x[2,2,0,1] 0
x[2,2,0,2] 0
x[2,2,1,0] 0
x[2,2,1,1] 0
x[2,2,1,2] 0
x[2,2,2,0] 0
x[2,2,2,1] 0
x[2,2,2,2] 0
x[2,2,3,0] 0
x[2,2,3,1] 0
x[2,2,3,2] 0
x[2,2,4,0] 0
x[2,2,4,1] 0
x[2,2,4,2] 0
x[2,2,5,0] 0
x[2,2,5,1] 0
x[2,2,5,2] 0
x[2,2,6,0] 0
x[2,2,6,1] 0
x[2,2,6,2] 1
x[2,2,7,0] 0
x[2,2,7,1] 0
x[2,2,7,2] 0
x[3,0,0,0] 0
x[3,0,0,1] 0
x[3,0,0,2] 0
x[3,0,1,0] 0
x[3,0,1,1] 0
x[3,0,1,2] 0
x[3,0,2,0] 0
x[3,0,2,1] 0
x[3,0,2,2] 0
x[3,0,3,0] 0
x[3,0,3,1] 0
x[3,0,3,2] 0
x[3,0,4,0] 1
x[3,0,4,1] 0
x[3,0,4,2] 0
x[3,0,5,0] 1
x[3,0,5,1] 0
x[3,0,5,2] 1
x[3,0,6,0] 0
x[3,0,6,1] 0
x[3,0,6,2] 0
x[3,0,7,0] 1
x[3,0,7,1] 0
x[3,0,7,2] 0
x[3,1,0,0] 0
x[3,1,0,1] 0
x[3,1,0,2] 0
x[3,1,1,0] 0
x[3,1,1,1] 0
x[3,1,1,2] 0
x[3,1,2,0] 0
x[3,1,2,1] 0
x[3,1,2,2] 0
x[3,1,3,0] 0
x[3,1,3,1] 0
x[3,1,3,2] 0
x[3,1,4,0] 1
x[3,1,4,1] 0
x[3,1,4,2] 1
x[3,1,5,0] 0
x[3,1,5,1] 1
x[3,1,5,2] 1
x[3,1,6,0] 0
x[3,1,6,1] 1
x[3,1,6,2] 0
x[3,1,7,0] 1
x[3,1,7,1] 0
x[3,1,7,2] 0
x[3,2,0,0] 0
x[3,2,0,1] 0
x[3,2,0,2] 0
x[3,2,1,0] 0
x[3,2,1,1] 0
x[3,2,1,2] 0
x[3,2,2,0] 0
x[3,2,2,1] 0
x[3,2,2,2] 0
x[3,2,3,0] 0
x[3,2,3,1] 0
x[3,2,3,2] 0
x[3,2,4,0] 0
x[3,2,4,1] 0
x[3,2,4,2] 0
x[3,2,5,0] 0
x[3,2,5,1] 0
x[3,2,5,2] 0
x[3,2,6,0] 0
x[3,2,6,1] 0
x[3,2,6,2] 1
x[3,2,7,0] 0
x[3,2,7,1] 0
x[3,2,7,2] 0
x[4,0,0,0] 0
x[4,0,0,1] 0
x[4,0,0,2] 0
x[4,0,1,0] 0
x[4,0,1,1] 0
x[4,0,1,2] 0
x[4,0,2,0] 0
x[4,0,2,1] 0
x[4,0,2,2] 0
x[4,0,3,0] 0
x[4,0,3,1] 0
x[4,0,3,2] 0
x[4,0,4,0] 0
x[4,0,4,1] 0
x[4,0,4,2] 0
x[4,0,5,0] 0
x[4,0,5,1] 1
x[4,0,5,2] 0
x[4,0,6,0] 0
x[4,0,6,1] 0
x[4,0,6,2] 1
x[4,0,7,0] 0
x[4,0,7,1] 1
x[4,0,7,2] 0
x[4,1,0,0] 0
x[4,1,0,1] 0
x[4,1,0,2] 0
x[4,1,1,0] 0
x[4,1,1,1] 0
x[4,1,1,2] 0
x[4,1,2,0] 0
x[4,1,2,1] 0
x[4,1,2,2] 0
x[4,1,3,0] 0
x[4,1,3,1] 0
x[4,1,3,2] 0
x[4,1,4,0] 1
x[4,1,4,1] 0
x[4,1,4,2] 0
x[4,1,5,0] 0
x[4,1,5,1] 1
x[4,1,5,2] 0
x[4,1,6,0] 0
x[4,1,6,1] 0
x[4,1,6,2] 0
x[4,1,7,0] 0
x[4,1,7,1] 0
x[4,1,7,2] 1
x[4,2,0,0] 0
x[4,2,0,1] 0
x[4,2,0,2] 0
x[4,2,1,0] 0
x[4,2,1,1] 0
x[4,2,1,2] 0
x[4,2,2,0] 0
x[4,2,2,1] 0
x[4,2,2,2] 0
x[4,2,3,0] 0
x[4,2,3,1] 0
x[4,2,3,2] 0
x[4,2,4,0] 1
x[4,2,4,1] 0
x[4,2,4,2] 0
x[4,2,5,0] 0
x[4,2,5,1] 1
x[4,2,5,2] 1
x[4,2,6,0] 0
x[4,2,6,1] 0
x[4,2,6,2] 1
x[4,2,7,0] 0
x[4,2,7,1] 0
x[4,2,7,2] 0
x[5,0,0,0] 0
x[5,0,0,1] 0
x[5,0,0,2] 0
x[5,0,1,0] 0
x[5,0,1,1] 0
x[5,0,1,2] 0
x[5,0,2,0] 0
x[5,0,2,1] 0
x[5,0,2,2] 0
x[5,0,3,0] 0
x[5,0,3,1] 0
x[5,0,3,2] 0
x[5,0,4,0] 0
x[5,0,4,1] 0
x[5,0,4,2] 0
x[5,0,5,0] 0
x[5,0,5,1] 0
x[5,0,5,2] 0
x[5,0,6,0] 1
x[5,0,6,1] 0
x[5,0,6,2] 0
x[5,0,7,0] 1
x[5,0,7,1] 1
x[5,0,7,2] 0
x[5,1,0,0] 0
x[5,1,0,1] 0
x[5,1,0,2] 0
x[5,1,1,0] 0
x[5,1,1,1] 0
x[5,1,1,2] 0
x[5,1,2,0] 0
x[5,1,2,1] 0
x[5,1,2,2] 0
x[5,1,3,0] 0
x[5,1,3,1] 0
x[5,1,3,2] 0
x[5,1,4,0] 0
x[5,1,4,1] 0
x[5,1,4,2] 0
x[5,1,5,0] 1
x[5,1,5,1] 0
x[5,1,5,2] 1
x[5,1,6,0] 1
x[5,1,6,1] 1
x[5,1,6,2] 0
x[5,1,7,0] 0
x[5,1,7,1] 0
x[5,1,7,2] 0
x[5,2,0,0] 0
x[5,2,0,1] 0
x[5,2,0,2] 0
x[5,2,1,0] 0
x[5,2,1,1] 0
x[5,2,1,2] 0
x[5,2,2,0] 0
x[5,2,2,1] 0
x[5,2,2,2] 0
x[5,2,3,0] 0
x[5,2,3,1] 0
x[5,2,3,2] 0
x[5,2,4,0] 0
x[5,2,4,1] 0
x[5,2,4,2] 0
x[5,2,5,0] 0
x[5,2,5,1] 0
x[5,2,5,2] 0
x[5,2,6,0] 0
x[5,2,6,1] 1
x[5,2,6,2] 1
x[5,2,7,0] 0
x[5,2,7,1] 0
x[5,2,7,2] 0
x[6,0,0,0] 0
x[6,0,0,1] 0
x[6,0,0,2] 0
x[6,0,1,0] 0
x[6,0,1,1] 0
x[6,0,1,2] 0
x[6,0,2,0] 0
x[6,0,2,1] 0
x[6,0,2,2] 0
x[6,0,3,0] 0
x[6,0,3,1] 0
x[6,0,3,2] 0
x[6,0,4,0] 0
x[6,0,4,1] 0
x[6,0,4,2] 0
x[6,0,5,0] 0
x[6,0,5,1] 0
x[6,0,5,2] 0
x[6,0,6,0] 0
x[6,0,6,1] 1
x[6,0,6,2] 0
x[6,0,7,0] 0
x[6,0,7,1] 0
x[6,0,7,2] 0
x[6,1,0,0] 0
x[6,1,0,1] 0
x[6,1,0,2] 0
x[6,1,1,0] 0
x[6,1,1,1] 0
x[6,1,1,2] 0
x[6,1,2,0] 0
x[6,1,2,1] 0
x[6,1,2,2] 0
x[6,1,3,0] 0
x[6,1,3,1] 0
x[6,1,3,2] 0
x[6,1,4,0] 0
x[6,1,4,1] 0
x[6,1,4,2] 0
x[6,1,5,0] 0
x[6,1,5,1] 0
x[6,1,5,2] 0
x[6,1,6,0] 0
x[6,1,6,1] 0
x[6,1,6,2] 1
x[6,1,7,0] 1
x[6,1,7,1] 0
x[6,1,7,2] 0
x[6,2,0,0] 0
x[6,2,0,1] 0
x[6,2,0,2] 0
x[6,2,1,0] 0
x[6,2,1,1] 0
x[6,2,1,2] 0
x[6,2,2,0] 0
x[6,2,2,1] 0
x[6,2,2,2] 0
x[6,2,3,0] 0
x[6,2,3,1] 0
x[6,2,3,2] 0
x[6,2,4,0] 0
x[6,2,4,1] 0
x[6,2,4,2] 0
x[6,2,5,0] 0
x[6,2,5,1] 0
x[6,2,5,2] 0
x[6,2,6,0] 0
x[6,2,6,1] 0
x[6,2,6,2] 0
x[6,2,7,0] 0
x[6,2,7,1] 0
x[6,2,7,2] 1
x[7,0,0,0] 0
x[7,0,0,1] 0
x[7,0,0,2] 0
x[7,0,1,0] 0
x[7,0,1,1] 0
x[7,0,1,2] 0
x[7,0,2,0] 0
x[7,0,2,1] 0
x[7,0,2,2] 0
x[7,0,3,0] 0
x[7,0,3,1] 0
x[7,0,3,2] 0
x[7,0,4,0] 0
x[7,0,4,1] 0
x[7,0,4,2] 0
x[7,0,5,0] 0
x[7,0,5,1] 0
x[7,0,5,2] 0
x[7,0,6,0] 0
x[7,0,6,1] 0
x[7,0,6,2] 0
x[7,0,7,0] 0
x[7,0,7,1] 0
x[7,0,7,2] 0
x[7,1,0,0] 0
x[7,1,0,1] 0
x[7,1,0,2] 0
x[7,1,1,0] 0
x[7,1,1,1] 0
x[7,1,1,2] 0
x[7,1,2,0] 0
x[7,1,2,1] 0
x[7,1,2,2] 0
x[7,1,3,0] 0
x[7,1,3,1] 0
x[7,1,3,2] 0
x[7,1,4,0] 0
x[7,1,4,1] 0
x[7,1,4,2] 0
x[7,1,5,0] 0
x[7,1,5,1] 0
x[7,1,5,2] 0
x[7,1,6,0] 0
x[7,1,6,1] 0
x[7,1,6,2] 0
x[7,1,7,0] 1
x[7,1,7,1] 0
x[7,1,7,2] 0
x[7,2,0,0] 0
x[7,2,0,1] 0
x[7,2,0,2] 0
x[7,2,1,0] 0
x[7,2,1,1] 0
x[7,2,1,2] 0
x[7,2,2,0] 0
x[7,2,2,1] 0
x[7,2,2,2] 0
x[7,2,3,0] 0
x[7,2,3,1] 0
x[7,2,3,2] 0
x[7,2,4,0] 0
x[7,2,4,1] 0
x[7,2,4,2] 0
x[7,2,5,0] 0
x[7,2,5,1] 0
x[7,2,5,2] 0
x[7,2,6,0] 0
x[7,2,6,1] 0
x[7,2,6,2] 0
x[7,2,7,0] 0
x[7,2,7,1] 0
x[7,2,7,2] 0
s[0,0,3] 1156
s[0,0,4] 0
s[0,0,6] 0
s[0,1,1] 940
s[0,1,3] 0
s[0,1,6] 0
s[0,2,0] 480
s[0,2,1] 0
s[0,2,2] 0
s[1,0,4] 0
s[1,0,5] 1454
s[1,0,6] 0
s[1,1,1] 1388
s[1,1,2] 0
s[1,2,0] 1034
s[1,2,2] 0
s[2,0,3] 0
s[2,0,4] 2103
s[2,0,5] 0
s[2,1,2] 0
s[2,1,3] 1998
s[2,1,6] 0
s[2,2,0] 0
s[2,2,1] 1936
s[3,0,3] 0
s[3,0,5] 2179
s[3,1,2] 1859
s[3,1,4] 0
s[3,2,0] 1772
s[3,2,1] 0
s[4,0,1] 0
s[4,0,4] 0
s[4,0,5] 711
s[4,1,3] 0
s[4,1,4] 0
s[4,1,6] 625
s[4,2,0] 0
s[4,2,1] 0
s[4,2,2] 480
s[5,0,4] 0
s[5,0,5] 876
s[5,0,6] 0
s[5,1,2] 0
s[5,1,3] 0
s[5,1,4] 634
s[5,2,1] 0
s[5,2,2] 0
s[5,2,3] 480
s[6,0,4] 0
s[6,0,5] 0
s[6,0,6] 960
s[6,1,2] 808
s[6,1,4] 0
s[6,2,1] 480
s[6,2,2] 0
s[7,0,4] 0
s[7,0,5] 0
s[7,0,6] 1409
s[7,1,4] 1141
s[7,1,5] 0
s[7,2,2] 0
s[7,2,3] 756
Z_FO 8170
C701 1
C702 0
C703 0
C704 0
C705 1
C706 0
C707 0
C708 1
C709 0
C710 0
C711 1
C712 0
C713 0
C714 1
C715 0
C716 1
C717 0
C718 0
C719 0
C720 1
C721 0
C722 0
C723 1
